Version identifier: 20.1.0.0 | 2020-11-10 | 9bedb6d68
Tried aggregator 2 times.
MIP Presolve eliminated 1379 rows and 839 columns.
MIP Presolve modified 2556 coefficients.
Aggregator did 141 substitutions.
Reduced MIP has 1036 rows, 827 columns, and 3285 nonzeros.
Reduced MIP has 188 binaries, 639 generals, 0 SOSs, and 0 indicators.
Presolve time = 0.02 sec. (5.57 ticks)
Found incumbent of value 39.000000 after 0.02 sec. (9.45 ticks)
Probing fixed 30 vars, tightened 245 bounds.
Probing time = 0.00 sec. (0.93 ticks)
Tried aggregator 1 time.
Detecting symmetries...
MIP Presolve eliminated 450 rows and 30 columns.
MIP Presolve modified 38 coefficients.
Reduced MIP has 586 rows, 797 columns, and 1905 nonzeros.
Reduced MIP has 268 binaries, 529 generals, 0 SOSs, and 0 indicators.
Presolve time = 0.00 sec. (2.18 ticks)
Probing time = 0.00 sec. (0.16 ticks)
Clique table members: 31.
MIP emphasis: balance optimality and feasibility.
MIP search method: dynamic search.
Parallel mode: deterministic, using up to 24 threads.
Root relaxation solution time = 0.00 sec. (1.60 ticks)

        Nodes                                         Cuts/
   Node  Left     Objective  IInf  Best Integer    Best Bound    ItCnt     Gap

*     0+    0                           39.0000        0.0000           100.00%
*     0+    0                           22.0000        0.0000           100.00%
      0     0        0.0000    40       22.0000        0.0000      175  100.00%
      0     0        0.6667    47       22.0000     Cuts: 126      339   96.97%
*     0+    0                            6.0000        0.6667            88.89%
      0     0        1.0519   149        6.0000      Cuts: 50      497   82.47%
      0     0        1.1000   121        6.0000      Cuts: 47      524   81.67%
      0     0        1.3667    90        6.0000      Cuts: 25      559   77.22%
      0     0        1.5500    94        6.0000      Cuts: 17      572   74.17%
      0     0        1.5500    96        6.0000      Cuts: 25      583   74.17%
      0     0        1.5500    91        6.0000       Cuts: 7      592   74.17%
*     0+    0                            5.0000        1.5500            69.00%
      0     0        cutoff              5.0000        5.0000      592    0.00%
Elapsed time = 0.19 sec. (62.20 ticks, tree = 0.01 MB, solutions = 4)

Implied bound cuts applied:  47
Flow cuts applied:  3
Mixed integer rounding cuts applied:  7
Zero-half cuts applied:  53
Gomory fractional cuts applied:  30

Root node processing (before b&c):
  Real time             =    0.19 sec. (62.30 ticks)
Parallel b&c, 24 threads:
  Real time             =    0.00 sec. (0.00 ticks)
  Sync time (average)   =    0.00 sec.
  Wait time (average)   =    0.00 sec.
                          ------------
Total (root+branch&cut) =    0.19 sec. (62.30 ticks)

Solution status = Optimal
Solution LB = 5
Solution UB = 5
Runtime = 0.200822 seconds
	Command being timed: "/home/min/git_repos/CS598MEBProject/CNT-ILP/build/cnt -s 2 ./output/k6_n30/simC_c1_k6_n30_u1_s3_del02.input-left.cnp"
	User time (seconds): 2.32
	System time (seconds): 0.03
	Percent of CPU this job got: 982%
	Elapsed (wall clock) time (h:mm:ss or m:ss): 0:00.24
	Average shared text size (kbytes): 0
	Average unshared data size (kbytes): 0
	Average stack size (kbytes): 0
	Average total size (kbytes): 0
	Maximum resident set size (kbytes): 61184
	Average resident set size (kbytes): 0
	Major (requiring I/O) page faults: 0
	Minor (reclaiming a frame) page faults: 12285
	Voluntary context switches: 2523
	Involuntary context switches: 348
	Swaps: 0
	File system inputs: 0
	File system outputs: 16
	Socket messages sent: 0
	Socket messages received: 0
	Signals delivered: 0
	Page size (bytes): 4096
	Exit status: 0
